StudentsNr = 10;
InstructorsNr = 15;
DaysNr = 2;
SlotsPerDay = 20;
AvailabilitySlotsLenght = 5;
RoomNr = 2;
ProgrammNr = 2;
DegreeNr = 2;
RolesNr = 3;
CoursesNr = 4;
InstructorsProgramm = [{1}, {1, 2}, {2}, {2}, {2}, {1, 2}, {2}, {1, 2}, {2}, {1, 2}, {1}, {1}, {1}, {2}, {1}];
InstructorRolesPerProgramm = [|{2, 8, 10, 11, 13}, {1, 6, 12, 13, 15}, {1, 6, 11, 15}|{2, 5, 7, 8, 10, 14}, {3, 6, 7, 14}, {3, 5, 6}|];
InstructorsAvailability = [|0, 1, 1, 1, 0, 0, 1, 1, |0, 0, 1, 1, 1, 0, 1, 1, |0, 1, 0, 0, 0, 1, 1, 1, |1, 0, 0, 0, 0, 0, 0, 1, |1, 0, 1, 1, 1, 1, 0, 0, |0, 1, 1, 1, 1, 1, 1, 1, |1, 1, 1, 1, 1, 1, 1, 1, |0, 1, 1, 1, 1, 1, 1, 1, |0, 1, 1, 1, 1, 1, 1, 1, |1, 0, 1, 0, 1, 1, 1, 1, |0, 0, 0, 1, 1, 1, 0, 1, |0, 1, 1, 1, 1, 1, 1, 1, |0, 1, 1, 1, 1, 0, 0, 1, |0, 1, 1, 1, 0, 0, 0, 1, |0, 1, 1, 1, 1, 1, 1, 1|];
StudentsProgramm = [2, 1, 2, 1, 2, 1, 1, 2, 1, 1];
StudentsDegree = [1, 1, 1, 2, 1, 1, 2, 2, 1, 1];
StudentsSupervisorId = [14, 11, 5, 2, 8, 11, 11, 3, 12, 11];
StudentsCourseIds = [{}, {}, {}, {1, 2, 3, 4}, {}, {}, {1, 2, 3, 4}, {1, 2, 3, 4}, {}, {}];
StudentsAvailability = [|1, 1, 1, 0, 1, 1, 0, 1, |0, 1, 1, 1, 1, 1, 1, 1, |0, 1, 1, 1, 1, 1, 1, 1, |1, 1, 1, 0, 0, 1, 1, 0, |1, 1, 1, 1, 1, 1, 1, 1, |0, 0, 1, 1, 1, 1, 1, 1, |1, 1, 0, 1, 1, 1, 1, 1, |1, 1, 1, 1, 1, 1, 1, 0, |1, 1, 1, 1, 1, 1, 1, 0, |1, 1, 1, 1, 1, 1, 1, 0|];
TheoryticalMinCard = [0, 0, 0, 0, 0, 0, 0, 0, 0, 0];
CoursesInstructorIds = [{1, 2, 3, 5, 8, 9, 10, 11, 15}, {2, 6, 10, 11, 15}, {1, 2, 3, 7, 10, 12, 13, 15}, {7, 8, 9, 14}];
RolesDemands = [3, 3, 3];
RolesContinuity = [1, 2];
ExamLen = [1, 1, 1, 1, 1, 1, 1, 1, 1, 1];
LunchTsMinLen = 0;
LunchStarts = [7..15, 27..34];
SupervisorAvailable = 5;
OptimalLunchLenght = [0, 0];
OptimalStartTs = [2, 0];
OptimalFinishTs = [0, 20];
MinimizeRooms = 400;
RolesSoftContinuity = [|1, 2, 3|3, 3, 1|];
SameDegreeInRoom = 0;
Mergeability = 1;
